certificates/rado_a11_c18_N46.cnf
c Rad2 upper bound instance: x1 + 11*x2 - x3 = 18, interval [1,46]
p cnf 46 282
1 2 5 0
-1 -2 -5 0
1 3 16 0
-1 -3 -16 0
1 4 27 0
-1 -4 -27 0
1 5 38 0
-1 -5 -38 0
2 6 0
-2 -6 0
2 3 17 0
-2 -3 -17 0
2 4 28 0
-2 -4 -28 0
2 5 39 0
-2 -5 -39 0
2 3 7 0
-2 -3 -7 0
3 18 0
-3 -18 0
3 4 29 0
-3 -4 -29 0
3 5 40 0
-3 -5 -40 0
2 4 8 0
-2 -4 -8 0
3 4 19 0
-3 -4 -19 0
4 30 0
-4 -30 0
4 5 41 0
-4 -5 -41 0
2 5 9 0
-2 -5 -9 0
3 5 20 0
-3 -5 -20 0
4 5 31 0
-4 -5 -31 0
5 42 0
-5 -42 0
2 6 10 0
-2 -6 -10 0
3 6 21 0
-3 -6 -21 0
4 6 32 0
-4 -6 -32 0
5 6 43 0
-5 -6 -43 0
2 7 11 0
-2 -7 -11 0
3 7 22 0
-3 -7 -22 0
4 7 33 0
-4 -7 -33 0
5 7 44 0
-5 -7 -44 0
1 8 0
-1 -8 0
2 8 12 0
-2 -8 -12 0
3 8 23 0
-3 -8 -23 0
4 8 34 0
-4 -8 -34 0
5 8 45 0
-5 -8 -45 0
1 2 9 0
-1 -2 -9 0
2 9 13 0
-2 -9 -13 0
3 9 24 0
-3 -9 -24 0
4 9 35 0
-4 -9 -35 0
5 9 46 0
-5 -9 -46 0
1 3 10 0
-1 -3 -10 0
2 10 14 0
-2 -10 -14 0
3 10 25 0
-3 -10 -25 0
4 10 36 0
-4 -10 -36 0
1 4 11 0
-1 -4 -11 0
2 11 15 0
-2 -11 -15 0
3 11 26 0
-3 -11 -26 0
4 11 37 0
-4 -11 -37 0
1 5 12 0
-1 -5 -12 0
2 12 16 0
-2 -12 -16 0
3 12 27 0
-3 -12 -27 0
4 12 38 0
-4 -12 -38 0
1 6 13 0
-1 -6 -13 0
2 13 17 0
-2 -13 -17 0
3 13 28 0
-3 -13 -28 0
4 13 39 0
-4 -13 -39 0
1 7 14 0
-1 -7 -14 0
2 14 18 0
-2 -14 -18 0
3 14 29 0
-3 -14 -29 0
4 14 40 0
-4 -14 -40 0
1 8 15 0
-1 -8 -15 0
2 15 19 0
-2 -15 -19 0
3 15 30 0
-3 -15 -30 0
4 15 41 0
-4 -15 -41 0
1 9 16 0
-1 -9 -16 0
2 16 20 0
-2 -16 -20 0
3 16 31 0
-3 -16 -31 0
4 16 42 0
-4 -16 -42 0
1 10 17 0
-1 -10 -17 0
2 17 21 0
-2 -17 -21 0
3 17 32 0
-3 -17 -32 0
4 17 43 0
-4 -17 -43 0
1 11 18 0
-1 -11 -18 0
2 18 22 0
-2 -18 -22 0
3 18 33 0
-3 -18 -33 0
4 18 44 0
-4 -18 -44 0
1 12 19 0
-1 -12 -19 0
2 19 23 0
-2 -19 -23 0
3 19 34 0
-3 -19 -34 0
4 19 45 0
-4 -19 -45 0
1 13 20 0
-1 -13 -20 0
2 20 24 0
-2 -20 -24 0
3 20 35 0
-3 -20 -35 0
4 20 46 0
-4 -20 -46 0
1 14 21 0
-1 -14 -21 0
2 21 25 0
-2 -21 -25 0
3 21 36 0
-3 -21 -36 0
1 15 22 0
-1 -15 -22 0
2 22 26 0
-2 -22 -26 0
3 22 37 0
-3 -22 -37 0
1 16 23 0
-1 -16 -23 0
2 23 27 0
-2 -23 -27 0
3 23 38 0
-3 -23 -38 0
1 17 24 0
-1 -17 -24 0
2 24 28 0
-2 -24 -28 0
3 24 39 0
-3 -24 -39 0
1 18 25 0
-1 -18 -25 0
2 25 29 0
-2 -25 -29 0
3 25 40 0
-3 -25 -40 0
1 19 26 0
-1 -19 -26 0
2 26 30 0
-2 -26 -30 0
3 26 41 0
-3 -26 -41 0
1 20 27 0
-1 -20 -27 0
2 27 31 0
-2 -27 -31 0
3 27 42 0
-3 -27 -42 0
1 21 28 0
-1 -21 -28 0
2 28 32 0
-2 -28 -32 0
3 28 43 0
-3 -28 -43 0
1 22 29 0
-1 -22 -29 0
2 29 33 0
-2 -29 -33 0
3 29 44 0
-3 -29 -44 0
1 23 30 0
-1 -23 -30 0
2 30 34 0
-2 -30 -34 0
3 30 45 0
-3 -30 -45 0
1 24 31 0
-1 -24 -31 0
2 31 35 0
-2 -31 -35 0
3 31 46 0
-3 -31 -46 0
1 25 32 0
-1 -25 -32 0
2 32 36 0
-2 -32 -36 0
1 26 33 0
-1 -26 -33 0
2 33 37 0
-2 -33 -37 0
1 27 34 0
-1 -27 -34 0
2 34 38 0
-2 -34 -38 0
1 28 35 0
-1 -28 -35 0
2 35 39 0
-2 -35 -39 0
1 29 36 0
-1 -29 -36 0
2 36 40 0
-2 -36 -40 0
1 30 37 0
-1 -30 -37 0
2 37 41 0
-2 -37 -41 0
1 31 38 0
-1 -31 -38 0
2 38 42 0
-2 -38 -42 0
1 32 39 0
-1 -32 -39 0
2 39 43 0
-2 -39 -43 0
1 33 40 0
-1 -33 -40 0
2 40 44 0
-2 -40 -44 0
1 34 41 0
-1 -34 -41 0
2 41 45 0
-2 -41 -45 0
1 35 42 0
-1 -35 -42 0
2 42 46 0
-2 -42 -46 0
1 36 43 0
-1 -36 -43 0
1 37 44 0
-1 -37 -44 0
1 38 45 0
-1 -38 -45 0
1 39 46 0
-1 -39 -46 0
