certificates/rado_a11_c18_N46.drat
-42 -46 0
-1 42 0
9 1 0
d 9 16 1 0
-46 0
1 -2 0
-1 -2 0
d -1 -5 -2 0
-2 0
6 0
42 0
-5 0
9 0
1 0
39 0
-16 0
-8 0
-13 0
-35 0
-32 0
20 0
12 0
4 0
45 0
17 0
31 0
36 0
28 0
-27 0
-19 0
-30 0
-10 0
-11 0
-38 0
-43 0
-24 0
-29 0
-21 0
23 0
15 0
34 0
26 0
14 0
7 0
33 0
25 0
-41 0
-22 0
0
